Differential/diff_ivlbc_3.txt
1 seconds 
<gurobi.Var p0_0_4 (value 1.0)>
<gurobi.Var p0_0_11 (value 1.0)>
<gurobi.Var p0_0_14 (value 1.0)>
<gurobi.Var p0_1_7 (value 1.0)>
<gurobi.Var p0_2_0 (value 1.0)>
<gurobi.Var p0_2_2 (value 1.0)>
<gurobi.Var p0_2_3 (value 1.0)>
<gurobi.Var x0_17 (value 1.0)>
<gurobi.Var x0_45 (value 1.0)>
<gurobi.Var x0_57 (value 1.0)>
<gurobi.Var A0_4 (value 1.0)>
<gurobi.Var y0_16 (value 1.0)>
<gurobi.Var y0_19 (value 1.0)>
<gurobi.Var A0_11 (value 1.0)>
<gurobi.Var y0_44 (value 1.0)>
<gurobi.Var y0_47 (value 1.0)>
<gurobi.Var A0_14 (value 1.0)>
<gurobi.Var y0_56 (value 1.0)>
<gurobi.Var y0_59 (value 1.0)>
<gurobi.Var z0_16 (value 1.0)>
<gurobi.Var z0_19 (value 1.0)>
<gurobi.Var z0_20 (value 1.0)>
<gurobi.Var z0_23 (value 1.0)>
<gurobi.Var z0_24 (value 1.0)>
<gurobi.Var z0_27 (value 1.0)>
<gurobi.Var d0_33 (value 1.0)>
<gurobi.Var d0_39 (value 1.0)>
<gurobi.Var d0_41 (value 1.0)>
<gurobi.Var d0_47 (value 1.0)>
<gurobi.Var d0_49 (value 1.0)>
<gurobi.Var d0_55 (value 1.0)>
<gurobi.Var x1_28 (value 1.0)>
<gurobi.Var d0_56 (value 1.0)>
<gurobi.Var x1_31 (value 1.0)>
<gurobi.Var d0_62 (value 1.0)>
<gurobi.Var A1_7 (value 1.0)>
<gurobi.Var y1_29 (value 1.0)>
<gurobi.Var z1_5 (value 1.0)>
<gurobi.Var x2_1 (value 1.0)>
<gurobi.Var d1_3 (value 1.0)>
<gurobi.Var x2_9 (value 1.0)>
<gurobi.Var d1_19 (value 1.0)>
<gurobi.Var x2_13 (value 1.0)>
<gurobi.Var d1_27 (value 1.0)>
<gurobi.Var A2_0 (value 1.0)>
<gurobi.Var y2_0 (value 1.0)>
<gurobi.Var A2_2 (value 1.0)>
<gurobi.Var y2_8 (value 1.0)>
<gurobi.Var A2_3 (value 1.0)>
<gurobi.Var y2_12 (value 1.0)>
<gurobi.Var z2_0 (value 1.0)>
<gurobi.Var z2_40 (value 1.0)>
<gurobi.Var z2_52 (value 1.0)>
<gurobi.Var x3_4 (value 1.0)>
<gurobi.Var d2_9 (value 1.0)>
<gurobi.Var x3_8 (value 1.0)>
<gurobi.Var d2_17 (value 1.0)>
<gurobi.Var x3_12 (value 1.0)>
<gurobi.Var d2_25 (value 1.0)>
<gurobi.Var x3_32 (value 1.0)>
<gurobi.Var d2_65 (value 1.0)>
<gurobi.Var x3_36 (value 1.0)>
<gurobi.Var d2_73 (value 1.0)>
<gurobi.Var x3_44 (value 1.0)>
<gurobi.Var d2_89 (value 1.0)>
<gurobi.Var x3_48 (value 1.0)>
<gurobi.Var d2_97 (value 1.0)>
<gurobi.Var x3_56 (value 1.0)>
<gurobi.Var d2_113 (value 1.0)>
<gurobi.Var x3_60 (value 1.0)>
<gurobi.Var d2_121 (value 1.0)>
